outputs/case_392.model.txt
internal_handling_established = True
explanation_document_recorded_according_to_rules = True
violate_148_3_2 = False
reported_to_authority_on_time = True
explanation_document_provided = True
violate_148_1_1_or_2 = False
internal_control_executed = True
violate_148_1_1 = False
violate_148_1_2 = False
public_explanation_provided = True
internal_handling_executed = True
penalty = False
violate_148_2_2 = False
violate_148_2_1 = False
internal_control_established = True
violate_148_3_1 = False
explanation_document_truthful = True
report_or_explanation_truthful = True